NAME: random-13-22022
TYPE: TSP
COMMENT: size=13 seed=22022
DIMENSION: 28
EDGE_WEIGHT_TYPE: EUC_2D
NODE_COORD_SECTION
+0 754 766
-0 754 766
+1 856 797
-1 676 313
+2 833 397
-2 765 244
+3 371 557
-3 195 811
+4 534 695
-4 859 727
+5 795 490
-5 8 424
+6 122 738
-6 3 316
+7 785 43
-7 725 277
+8 251 759
-8 597 410
+9 181 199
-9 610 947
+10 594 645
-10 288 662
+11 161 190
-11 893 501
+12 33 184
-12 309 926
+13 884 477
-13 279 878
PRECEDENCE_SECTION
+0 -0
+1 -1
+2 -2
+3 -3
+4 -4
+5 -5
+6 -6
+7 -7
+8 -8
+9 -9
+10 -10
+11 -11
+12 -12
+13 -13
EOF
